flay06m.py
Ipopt 3.12: 
==> Warning: Treating 60 binary and 0 integer variables as continous.


******************************************************************************
This program contains Ipopt, a library for large-scale nonlinear optimization.
 Ipopt is released as open source code under the Eclipse Public License (EPL).
         For more information visit http://projects.coin-or.org/Ipopt
******************************************************************************

This is Ipopt version 3.12, running with linear solver ma27.

Number of nonzeros in equality constraint Jacobian...:       60
Number of nonzeros in inequality constraint Jacobian.:      288
Number of nonzeros in Lagrangian Hessian.............:        6

Total number of variables............................:       86
                     variables with only lower bounds:        0
                variables with lower and upper bounds:       86
                     variables with only upper bounds:        0
Total number of equality constraints.................:       15
Total number of inequality constraints...............:       78
        inequality constraints with only lower bounds:       12
   inequality constraints with lower and upper bounds:        0
        inequality constraints with only upper bounds:       66

iter    objective    inf_pr   inf_du lg(mu)  ||d||  lg(rg) alpha_du alpha_pr  ls
   0  3.9999960e-02 7.32e+01 1.49e+00  -1.0 0.00e+00    -  0.00e+00 0.00e+00   0
   1  3.3644102e-01 6.93e+01 8.30e+00  -1.0 2.40e+01    -  6.25e-03 5.72e-02f  1
   2  7.0886314e+00 3.43e+01 2.25e+01  -1.0 2.23e+01    -  5.88e-02 1.00e+00f  1
   3  1.1882120e+01 1.68e+01 5.42e+00  -1.0 2.14e+00    -  5.22e-01 1.00e+00h  1
   4  1.8881489e+01 8.71e+00 2.43e+00  -1.0 3.42e+00    -  1.55e-01 7.10e-01h  1
   5  2.2686193e+01 6.31e+00 1.62e+00  -1.0 4.94e+00    -  2.65e-01 2.87e-01h  1
   6  3.4715446e+01 1.48e-01 6.79e-01  -1.0 4.88e+00    -  4.88e-01 1.00e+00h  1
   7  3.5189341e+01 2.22e-16 1.33e-01  -1.0 1.31e+00    -  9.80e-01 9.66e-01H  1
   8  3.4682605e+01 2.22e-16 1.49e-02  -1.7 7.45e-01    -  1.00e+00 9.59e-01f  1
   9  3.4641157e+01 8.58e-05 1.09e-02  -3.8 4.34e-02    -  1.00e+00 9.33e-01h  1
iter    objective    inf_pr   inf_du lg(mu)  ||d||  lg(rg) alpha_du alpha_pr  ls
  10  3.4641767e+01 2.22e-16 7.35e-05  -3.8 4.06e+00    -  1.00e+00 1.00e+00h  1
  11  3.4641769e+01 1.11e-16 9.47e-07  -3.8 5.05e-01    -  1.00e+00 1.00e+00h  1
  12  3.4641769e+01 0.00e+00 3.88e-08  -3.8 2.72e-02    -  1.00e+00 1.00e+00h  1
  13  3.4641025e+01 2.22e-16 4.09e-08  -5.7 3.99e-04    -  1.00e+00 1.00e+00h  1
  14  3.4641016e+01 2.22e-16 6.52e-12  -8.6 4.87e-06    -  1.00e+00 1.00e+00h  1

Number of Iterations....: 14

                                   (scaled)                 (unscaled)
Objective...............:   3.4641016063848809e+01    3.4641016063848809e+01
Dual infeasibility......:   6.5168337443136276e-12    6.5168337443136276e-12
Constraint violation....:   2.2204460492503131e-16    2.2204460492503131e-16
Complementarity.........:   2.5108686928717194e-09    2.5108686928717194e-09
Overall NLP error.......:   2.5108686928717194e-09    2.5108686928717194e-09


Number of objective function evaluations             = 16
Number of objective gradient evaluations             = 15
Number of equality constraint evaluations            = 16
Number of inequality constraint evaluations          = 16
Number of equality constraint Jacobian evaluations   = 15
Number of inequality constraint Jacobian evaluations = 15
Number of Lagrangian Hessian evaluations             = 14
Total CPU secs in IPOPT (w/o function evaluations)   =      0.004
Total CPU secs in NLP function evaluations           =      0.000

EXIT: Optimal Solution Found.

Time elapsed: 0.12218117713928223